50 2450 0
0 30
0 1 840
0 2 394
0 3 783
0 4 798
0 5 911
0 6 197
0 7 335
0 8 768
0 9 277
0 10 553
0 11 477
0 12 628
0 13 364
0 14 513
0 15 952
0 16 916
0 17 635
0 18 717
0 19 141
0 20 606
0 21 16
0 22 242
0 23 137
0 24 804
0 25 156
0 26 400
0 27 129
0 28 108
0 29 998
0 30 218
0 31 512
0 32 839
0 33 612
0 34 296
0 35 637
0 36 524
0 37 493
0 38 972
0 39 292
0 40 771
0 41 526
0 42 769
0 43 400
0 44 891
0 45 283
0 46 352
0 47 807
0 48 919
0 49 69
1 0 949
1 2 525
1 3 86
1 4 192
1 5 663
1 6 890
1 7 348
1 8 64
1 9 20
1 10 457
1 11 63
1 12 238
1 13 970
1 14 902
1 15 850
1 16 266
1 17 539
1 18 375
1 19 760
1 20 512
1 21 667
1 22 531
1 23 39
1 24 437
1 25 931
1 26 930
1 27 720
1 28 284
1 29 738
1 30 639
1 31 354
1 32 687
1 33 165
1 34 440
1 35 880
1 36 829
1 37 330
1 38 228
1 39 893
1 40 350
1 41 686
1 42 956
1 43 588
1 44 657
1 45 858
1 46 439
1 47 923
1 48 398
1 49 814
2 0 684
2 1 910
2 3 482
2 4 215
2 5 950
2 6 920
2 7 147
2 8 881
2 9 641
2 10 431
2 11 619
2 12 281
2 13 786
2 14 307
2 15 447
2 16 226
2 17 187
2 18 276
2 19 556
2 20 416
2 21 169
2 22 906
2 23 103
2 24 126
2 25 495
2 26 760
2 27 984
2 28 935
2 29 684
2 30 383
2 31 749
2 32 368
2 33 294
2 34 232
2 35 584
2 36 244
2 37 152
2 38 732
2 39 125
2 40 793
2 41 164
2 42 745
2 43 74
2 44 950
2 45 52
2 46 521
2 47 176
2 48 240
2 49 797
3 0 732
3 1 656
3 2 967
3 4 639
3 5 759
3 6 93
3 7 134
3 8 520
3 9 78
3 10 69
3 11 204
3 12 461
3 13 819
3 14 573
3 15 755
3 16 51
3 17 157
3 18 999
3 19 204
3 20 889
3 21 125
3 22 997
3 23 54
3 24 870
3 25 72
3 26 4
3 27 923
3 28 593
3 29 180
3 30 163
3 31 391
3 32 913
3 33 819
3 34 359
3 35 552
3 36 579
3 37 452
3 38 687
3 39 99
3 40 530
3 41 757
3 42 304
3 43 992
3 44 576
3 45 877
3 46 747
3 47 628
3 48 35
3 49 747
4 0 833
4 1 925
4 2 873
4 3 831
4 5 979
4 6 743
4 7 903
4 8 983
4 9 666
4 10 497
4 11 163
4 12 830
4 13 888
4 14 76
4 15 649
4 16 248
4 17 629
4 18 229
4 19 700
4 20 316
4 21 328
4 22 231
4 23 74
4 24 633
4 25 223
4 26 651
4 27 510
4 28 971
4 29 280
4 30 546
4 31 719
4 32 113
4 33 471
4 34 592
4 35 944
4 36 450
4 37 336
4 38 847
4 39 434
4 40 3
4 41 344
4 42 598
4 43 833
4 44 233
4 45 675
4 46 482
4 47 481
4 48 304
4 49 712
5 0 182
5 1 621
5 2 40
5 3 413
5 4 695
5 6 673
5 7 637
5 8 347
5 9 184
5 10 609
5 11 627
5 12 730
5 13 328
5 14 740
5 15 202
5 16 920
5 17 684
5 18 653
5 19 257
5 20 532
5 21 87
5 22 260
5 23 877
5 24 686
5 25 93
5 26 111
5 27 361
5 28 576
5 29 593
5 30 666
5 31 288
5 32 775
5 33 288
5 34 329
5 35 189
5 36 984
5 37 3
5 38 827
5 39 331
5 40 188
5 41 436
5 42 958
5 43 918
5 44 764
5 45 699
5 46 121
5 47 685
5 48 383
5 49 774
6 0 943
6 1 916
6 2 861
6 3 203
6 4 793
6 5 548
6 7 297
6 8 904
6 9 909
6 10 873
6 11 498
6 12 576
6 13 162
6 14 273
6 15 864
6 16 492
6 17 463
6 18 848
6 19 495
6 20 291
6 21 180
6 22 684
6 23 727
6 24 139
6 25 603
6 26 492
6 27 838
6 28 724
6 29 178
6 30 221
6 31 498
6 32 121
6 33 138
6 34 360
6 35 324
6 36 931
6 37 908
6 38 622
6 39 836
6 40 818
6 41 496
6 42 334
6 43 394
6 44 658
6 45 608
6 46 258
6 47 151
6 48 72
6 49 107
7 0 647
7 1 363
7 2 288
7 3 331
7 4 91
7 5 427
7 6 934
7 8 583
7 9 265
7 10 658
7 11 761
7 12 487
7 13 157
7 14 883
7 15 625
7 16 517
7 17 207
7 18 557
7 19 426
7 20 829
7 21 394
7 22 244
7 23 326
7 24 729
7 25 638
7 26 984
7 27 338
7 28 897
7 29 136
7 30 410
7 31 5
7 32 783
7 33 774
7 34 293
7 35 114
7 36 865
7 37 721
7 38 49
7 39 449
7 40 986
7 41 707
7 42 210
7 43 473
7 44 865
7 45 93
7 46 99
7 47 382
7 48 301
7 49 657
8 0 809
8 1 131
8 2 51
8 3 53
8 4 457
8 5 780
8 6 692
8 7 442
8 9 119
8 10 589
8 11 578
8 12 529
8 13 595
8 14 361
8 15 304
8 16 888
8 17 476
8 18 169
8 19 609
8 20 525
8 21 618
8 22 596
8 23 233
8 24 829
8 25 70
8 26 98
8 27 923
8 28 169
8 29 481
8 30 225
8 31 826
8 32 290
8 33 357
8 34 878
8 35 344
8 36 814
8 37 659
8 38 36
8 39 257
8 40 778
8 41 625
8 42 836
8 43 308
8 44 221
8 45 198
8 46 612
8 47 109
8 48 674
8 49 782
9 0 719
9 1 200
9 2 401
9 3 315
9 4 434
9 5 230
9 6 385
9 7 532
9 8 154
9 10 555
9 11 14
9 12 380
9 13 382
9 14 305
9 15 737
9 16 260
9 17 649
9 18 552
9 19 919
9 20 685
9 21 809
9 22 697
9 23 311
9 24 645
9 25 6
9 26 532
9 27 843
9 28 618
9 29 642
9 30 518
9 31 400
9 32 362
9 33 718
9 34 801
9 35 677
9 36 152
9 37 32
9 38 63
9 39 685
9 40 187
9 41 618
9 42 700
9 43 567
9 44 1
9 45 5
9 46 305
9 47 261
9 48 655
9 49 857
10 0 181
10 1 341
10 2 667
10 3 879
10 4 653
10 5 313
10 6 885
10 7 186
10 8 157
10 9 503
10 11 828
10 12 675
10 13 904
10 14 191
10 15 394
10 16 706
10 17 868
10 18 547
10 19 738
10 20 932
10 21 233
10 22 926
10 23 551
10 24 933
10 25 494
10 26 552
10 27 939
10 28 799
10 29 814
10 30 594
10 31 657
10 32 995
10 33 935
10 34 324
10 35 874
10 36 589
10 37 637
10 38 759
10 39 775
10 40 794
10 41 262
10 42 604
10 43 470
10 44 166
10 45 795
10 46 865
10 47 873
10 48 664
10 49 412
11 0 611
11 1 596
11 2 645
11 3 538
11 4 148
11 5 579
11 6 32
11 7 700
11 8 518
11 9 832
11 10 515
11 12 112
11 13 489
11 14 510
11 15 48
11 16 814
11 17 384
11 18 637
11 19 452
11 20 143
11 21 413
11 22 247
11 23 406
11 24 17
11 25 717
11 26 573
11 27 812
11 28 582
11 29 446
11 30 477
11 31 995
11 32 58
11 33 74
11 34 640
11 35 597
11 36 222
11 37 219
11 38 630
11 39 923
11 40 737
11 41 462
11 42 438
11 43 850
11 44 952
11 45 948
11 46 899
11 47 767
11 48 333
11 49 536
12 0 219
12 1 477
12 2 949
12 3 466
12 4 884
12 5 967
12 6 183
12 7 458
12 8 780
12 9 766
12 10 904
12 11 257
12 13 761
12 14 963
12 15 331
12 16 402
12 17 560
12 18 554
12 19 622
12 20 191
12 21 477
12 22 360
12 23 653
12 24 916
12 25 210
12 26 606
12 27 865
12 28 109
12 29 373
12 30 199
12 31 646
12 32 592
12 33 676
12 34 596
12 35 58
12 36 560
12 37 563
12 38 242
12 39 18
12 40 343
12 41 9
12 42 923
12 43 601
12 44 770
12 45 887
12 46 933
12 47 173
12 48 447
12 49 487
13 0 795
13 1 639
13 2 965
13 3 155
13 4 292
13 5 882
13 6 366
13 7 899
13 8 747
13 9 475
13 10 272
13 11 946
13 12 122
13 14 865
13 15 623
13 16 718
13 17 924
13 18 184
13 19 282
13 20 167
13 21 202
13 22 626
13 23 176
13 24 126
13 25 227
13 26 946
13 27 13
13 28 160
13 29 119
13 30 461
13 31 648
13 32 915
13 33 100
13 34 614
13 35 70
13 36 393
13 37 496
13 38 436
13 39 293
13 40 244
13 41 912
13 42 566
13 43 190
13 44 34
13 45 431
13 46 813
13 47 753
13 48 356
13 49 997
14 0 35
14 1 523
14 2 200
14 3 661
14 4 699
14 5 327
14 6 889
14 7 646
14 8 341
14 9 50
14 10 766
14 11 803
14 12 698
14 13 681
14 15 904
14 16 312
14 17 752
14 18 297
14 19 809
14 20 189
14 21 591
14 22 53
14 23 101
14 24 157
14 25 244
14 26 136
14 27 589
14 28 58
14 29 889
14 30 945
14 31 56
14 32 925
14 33 469
14 34 256
14 35 587
14 36 168
14 37 584
14 38 476
14 39 815
14 40 926
14 41 526
14 42 582
14 43 729
14 44 225
14 45 264
14 46 633
14 47 538
14 48 16
14 49 931
15 0 347
15 1 205
15 2 522
15 3 400
15 4 307
15 5 679
15 6 645
15 7 443
15 8 269
15 9 703
15 10 332
15 11 214
15 12 759
15 13 258
15 14 683
15 16 16
15 17 845
15 18 852
15 19 600
15 20 321
15 21 667
15 22 526
15 23 848
15 24 250
15 25 256
15 26 73
15 27 514
15 28 889
15 29 611
15 30 531
15 31 821
15 32 958
15 33 736
15 34 343
15 35 359
15 36 43
15 37 23
15 38 5
15 39 487
15 40 292
15 41 708
15 42 820
15 43 507
15 44 467
15 45 78
15 46 190
15 47 483
15 48 923
15 49 43
16 0 84
16 1 244
16 2 711
16 3 611
16 4 92
16 5 961
16 6 867
16 7 166
16 8 475
16 9 757
16 10 777
16 11 6
16 12 578
16 13 736
16 14 743
16 15 922
16 17 96
16 18 787
16 19 946
16 20 101
16 21 274
16 22 239
16 23 809
16 24 95
16 25 746
16 26 277
16 27 173
16 28 937
16 29 760
16 30 96
16 31 981
16 32 845
16 33 341
16 34 692
16 35 456
16 36 434
16 37 654
16 38 323
16 39 600
16 40 129
16 41 81
16 42 377
16 43 136
16 44 659
16 45 114
16 46 880
16 47 582
16 48 210
16 49 668
17 0 528
17 1 312
17 2 943
17 3 768
17 4 122
17 5 38
17 6 514
17 7 399
17 8 211
17 9 452
17 10 160
17 11 308
17 12 433
17 13 5
17 14 649
17 15 126
17 16 461
17 18 84
17 19 780
17 20 785
17 21 684
17 22 910
17 23 867
17 24 62
17 25 47
17 26 527
17 27 177
17 28 927
17 29 109
17 30 387
17 31 596
17 32 638
17 33 700
17 34 539
17 35 406
17 36 822
17 37 577
17 38 921
17 39 221
17 40 789
17 41 374
17 42 381
17 43 97
17 44 807
17 45 387
17 46 747
17 47 934
17 48 849
17 49 831
18 0 714
18 1 635
18 2 516
18 3 624
18 4 502
18 5 578
18 6 671
18 7 29
18 8 755
18 9 599
18 10 139
18 11 143
18 12 195
18 13 777
18 14 844
18 15 735
18 16 184
18 17 666
18 19 312
18 20 105
18 21 888
18 22 102
18 23 479
18 24 270
18 25 199
18 26 287
18 27 657
18 28 947
18 29 221
18 30 506
18 31 778
18 32 936
18 33 142
18 34 294
18 35 561
18 36 644
18 37 873
18 38 232
18 39 673
18 40 629
18 41 832
18 42 812
18 43 773
18 44 28
18 45 590
18 46 617
18 47 763
18 48 774
18 49 284
19 0 76
19 1 880
19 2 172
19 3 178
19 4 359
19 5 443
19 6 378
19 7 647
19 8 100
19 9 325
19 10 869
19 11 607
19 12 104
19 13 805
19 14 749
19 15 398
19 16 366
19 17 394
19 18 272
19 20 599
19 21 68
19 22 901
19 23 432
19 24 881
19 25 674
19 26 460
19 27 471
19 28 292
19 29 224
19 30 246
19 31 576
19 32 301
19 33 126
19 34 749
19 35 480
19 36 485
19 37 192
19 38 858
19 39 133
19 40 293
19 41 184
19 42 2
19 43 900
19 44 288
19 45 808
19 46 650
19 47 687
19 48 175
19 49 44
20 0 959
20 1 775
20 2 112
20 3 861
20 4 207
20 5 994
20 6 536
20 7 667
20 8 465
20 9 828
20 10 892
20 11 711
20 12 405
20 13 193
20 14 837
20 15 154
20 16 673
20 17 323
20 18 347
20 19 532
20 21 457
20 22 640
20 23 717
20 24 460
20 25 541
20 26 5
20 27 268
20 28 191
20 29 693
20 30 444
20 31 236
20 32 653
20 33 219
20 34 349
20 35 514
20 36 426
20 37 343
20 38 50
20 39 94
20 40 809
20 41 879
20 42 986
20 43 521
20 44 284
20 45 180
20 46 359
20 47 438
20 48 853
20 49 683
21 0 786
21 1 386
21 2 140
21 3 426
21 4 103
21 5 600
21 6 967
21 7 109
21 8 869
21 9 159
21 10 802
21 11 313
21 12 395
21 13 455
21 14 532
21 15 745
21 16 970
21 17 958
21 18 88
21 19 20
21 20 53
21 22 897
21 23 899
21 24 39
21 25 419
21 26 183
21 27 219
21 28 778
21 29 622
21 30 73
21 31 461
21 32 408
21 33 459
21 34 601
21 35 835
21 36 563
21 37 202
21 38 803
21 39 672
21 40 71
21 41 962
21 42 475
21 43 384
21 44 358
21 45 930
21 46 916
21 47 103
21 48 900
21 49 875
22 0 191
22 1 921
22 2 928
22 3 89
22 4 820
22 5 968
22 6 508
22 7 4
22 8 188
22 9 287
22 10 627
22 11 261
22 12 748
22 13 36
22 14 721
22 15 350
22 16 872
22 17 285
22 18 552
22 19 675
22 20 957
22 21 624
22 23 637
22 24 432
22 25 8
22 26 996
22 27 363
22 28 925
22 29 99
22 30 264
22 31 801
22 32 291
22 33 186
22 34 729
22 35 380
22 36 6
22 37 698
22 38 889
22 39 11
22 40 886
22 41 176
22 42 639
22 43 148
22 44 925
22 45 675
22 46 870
22 47 275
22 48 547
22 49 155
23 0 828
23 1 222
23 2 112
23 3 452
23 4 860
23 5 545
23 6 461
23 7 856
23 8 909
23 9 386
23 10 956
23 11 174
23 12 187
23 13 247
23 14 360
23 15 917
23 16 627
23 17 367
23 18 615
23 19 517
23 20 378
23 21 501
23 22 694
23 24 17
23 25 650
23 26 619
23 27 693
23 28 520
23 29 895
23 30 241
23 31 675
23 32 723
23 33 464
23 34 788
23 35 176
23 36 325
23 37 334
23 38 637
23 39 182
23 40 243
23 41 24
23 42 138
23 43 417
23 44 212
23 45 385
23 46 777
23 47 129
23 48 13
23 49 144
24 0 745
24 1 530
24 2 523
24 3 246
24 4 224
24 5 541
24 6 897
24 7 844
24 8 235
24 9 417
24 10 739
24 11 476
24 12 92
24 13 463
24 14 941
24 15 880
24 16 640
24 17 266
24 18 214
24 19 278
24 20 448
24 21 458
24 22 302
24 23 586
24 25 875
24 26 514
24 27 971
24 28 653
24 29 644
24 30 984
24 31 798
24 32 389
24 33 515
24 34 322
24 35 636
24 36 740
24 37 864
24 38 533
24 39 584
24 40 99
24 41 950
24 42 323
24 43 576
24 44 43
24 45 787
24 46 517
24 47 924
24 48 427
24 49 784
25 0 138
25 1 705
25 2 232
25 3 597
25 4 7
25 5 819
25 6 473
25 7 522
25 8 790
25 9 126
25 10 167
25 11 775
25 12 925
25 13 556
25 14 291
25 15 247
25 16 193
25 17 31
25 18 112
25 19 727
25 20 615
25 21 211
25 22 678
25 23 939
25 24 788
25 26 721
25 27 726
25 28 305
25 29 645
25 30 154
25 31 90
25 32 784
25 33 859
25 34 322
25 35 381
25 36 867
25 37 141
25 38 854
25 39 390
25 40 932
25 41 981
25 42 557
25 43 708
25 44 906
25 45 114
25 46 0
25 47 154
25 48 307
25 49 31
26 0 267
26 1 35
26 2 647
26 3 478
26 4 713
26 5 587
26 6 267
26 7 434
26 8 314
26 9 573
26 10 80
26 11 468
26 12 663
26 13 864
26 14 327
26 15 985
26 16 246
26 17 194
26 18 127
26 19 101
26 20 584
26 21 60
26 22 82
26 23 142
26 24 769
26 25 989
26 27 256
26 28 769
26 29 144
26 30 564
26 31 800
26 32 411
26 33 599
26 34 448
26 35 890
26 36 312
26 37 35
26 38 157
26 39 747
26 40 349
26 41 730
26 42 827
26 43 817
26 44 393
26 45 692
26 46 145
26 47 379
26 48 938
26 49 340
27 0 507
27 1 40
27 2 925
27 3 568
27 4 122
27 5 67
27 6 337
27 7 112
27 8 324
27 9 106
27 10 256
27 11 888
27 12 907
27 13 668
27 14 487
27 15 355
27 16 558
27 17 800
27 18 390
27 19 716
27 20 547
27 21 740
27 22 446
27 23 374
27 24 558
27 25 840
27 26 67
27 28 703
27 29 220
27 30 6
27 31 43
27 32 728
27 33 46
27 34 969
27 35 296
27 36 169
27 37 36
27 38 633
27 39 281
27 40 360
27 41 739
27 42 538
27 43 249
27 44 646
27 45 206
27 46 736
27 47 2
27 48 764
27 49 537
28 0 393
28 1 481
28 2 84
28 3 133
28 4 928
28 5 459
28 6 691
28 7 768
28 8 526
28 9 395
28 10 989
28 11 533
28 12 439
28 13 717
28 14 579
28 15 408
28 16 14
28 17 748
28 18 445
28 19 647
28 20 30
28 21 806
28 22 387
28 23 568
28 24 55
28 25 34
28 26 774
28 27 792
28 29 36
28 30 539
28 31 329
28 32 429
28 33 20
28 34 413
28 35 563
28 36 948
28 37 873
28 38 254
28 39 717
28 40 399
28 41 650
28 42 706
28 43 933
28 44 89
28 45 424
28 46 512
28 47 497
28 48 438
28 49 261
29 0 943
29 1 86
29 2 292
29 3 749
29 4 474
29 5 860
29 6 804
29 7 508
29 8 635
29 9 596
29 10 544
29 11 174
29 12 926
29 13 974
29 14 195
29 15 340
29 16 537
29 17 144
29 18 213
29 19 792
29 20 861
29 21 613
29 22 442
29 23 568
29 24 546
29 25 532
29 26 993
29 27 59
29 28 30
29 30 432
29 31 321
29 32 973
29 33 519
29 34 613
29 35 722
29 36 993
29 37 473
29 38 527
29 39 501
29 40 109
29 41 123
29 42 46
29 43 283
29 44 50
29 45 20
29 46 479
29 47 390
29 48 558
29 49 623
30 0 603
30 1 351
30 2 485
30 3 216
30 4 793
30 5 54
30 6 762
30 7 326
30 8 47
30 9 821
30 10 356
30 11 480
30 12 142
30 13 329
30 14 999
30 15 756
30 16 51
30 17 992
30 18 229
30 19 578
30 20 493
30 21 339
30 22 702
30 23 540
30 24 622
30 25 752
30 26 561
30 27 102
30 28 143
30 29 119
30 31 726
30 32 746
30 33 470
30 34 211
30 35 963
30 36 264
30 37 265
30 38 725
30 39 590
30 40 313
30 41 547
30 42 946
30 43 793
30 44 690
30 45 276
30 46 792
30 47 446
30 48 327
30 49 785
31 0 676
31 1 906
31 2 279
31 3 15
31 4 609
31 5 819
31 6 638
31 7 362
31 8 380
31 9 741
31 10 505
31 11 500
31 12 467
31 13 251
31 14 970
31 15 678
31 16 215
31 17 235
31 18 944
31 19 940
31 20 825
31 21 258
31 22 488
31 23 772
31 24 52
31 25 178
31 26 48
31 27 845
31 28 625
31 29 376
31 30 630
31 32 302
31 33 283
31 34 909
31 35 317
31 36 892
31 37 728
31 38 956
31 39 254
31 40 109
31 41 697
31 42 759
31 43 609
31 44 165
31 45 11
31 46 580
31 47 843
31 48 226
31 49 815
32 0 788
32 1 167
32 2 641
32 3 46
32 4 656
32 5 413
32 6 98
32 7 835
32 8 462
32 9 943
32 10 460
32 11 839
32 12 574
32 13 762
32 14 122
32 15 483
32 16 80
32 17 14
32 18 212
32 19 37
32 20 269
32 21 321
32 22 735
32 23 29
32 24 931
32 25 900
32 26 40
32 27 511
32 28 744
32 29 267
32 30 326
32 31 532
32 33 435
32 34 967
32 35 579
32 36 91
32 37 381
32 38 678
32 39 926
32 40 844
32 41 622
32 42 387
32 43 683
32 44 196
32 45 149
32 46 806
32 47 680
32 48 230
32 49 821
33 0 892
33 1 268
33 2 90
33 3 214
33 4 3
33 5 119
33 6 146
33 7 903
33 8 160
33 9 657
33 10 647
33 11 427
33 12 984
33 13 180
33 14 862
33 15 952
33 16 759
33 17 954
33 18 333
33 19 437
33 20 880
33 21 178
33 22 60
33 23 267
33 24 862
33 25 256
33 26 417
33 27 668
33 28 936
33 29 648
33 30 489
33 31 829
33 32 916
33 34 579
33 35 44
33 36 919
33 37 699
33 38 190
33 39 822
33 40 859
33 41 848
33 42 470
33 43 287
33 44 832
33 45 650
33 46 150
33 47 784
33 48 410
33 49 104
34 0 118
34 1 847
34 2 984
34 3 296
34 4 908
34 5 252
34 6 158
34 7 164
34 8 670
34 9 827
34 10 101
34 11 318
34 12 316
34 13 931
34 14 234
34 15 896
34 16 975
34 17 153
34 18 595
34 19 165
34 20 976
34 21 455
34 22 13
34 23 447
34 24 742
34 25 846
34 26 97
34 27 892
34 28 630
34 29 507
34 30 997
34 31 748
34 32 355
34 33 981
34 35 44
34 36 263
34 37 234
34 38 203
34 39 428
34 40 904
34 41 30
34 42 529
34 43 222
34 44 347
34 45 460
34 46 457
34 47 243
34 48 436
34 49 611
35 0 839
35 1 602
35 2 587
35 3 295
35 4 615
35 5 35
35 6 37
35 7 462
35 8 132
35 9 930
35 10 92
35 11 640
35 12 927
35 13 841
35 14 995
35 15 909
35 16 886
35 17 259
35 18 144
35 19 89
35 20 687
35 21 48
35 22 120
35 23 217
35 24 271
35 25 467
35 26 678
35 27 728
35 28 711
35 29 114
35 30 339
35 31 551
35 32 716
35 33 927
35 34 846
35 36 332
35 37 962
35 38 884
35 39 794
35 40 95
35 41 815
35 42 886
35 43 735
35 44 742
35 45 727
35 46 730
35 47 652
35 48 613
35 49 990
36 0 796
36 1 703
36 2 677
36 3 845
36 4 823
36 5 895
36 6 116
36 7 291
36 8 573
36 9 845
36 10 2
36 11 687
36 12 185
36 13 553
36 14 403
36 15 112
36 16 400
36 17 735
36 18 75
36 19 285
36 20 529
36 21 170
36 22 100
36 23 416
36 24 906
36 25 843
36 26 144
36 27 637
36 28 495
36 29 758
36 30 627
36 31 292
36 32 461
36 33 304
36 34 138
36 35 285
36 37 199
36 38 255
36 39 576
36 40 773
36 41 100
36 42 579
36 43 460
36 44 286
36 45 133
36 46 863
36 47 399
36 48 533
36 49 599
37 0 474
37 1 818
37 2 129
37 3 645
37 4 918
37 5 546
37 6 551
37 7 762
37 8 690
37 9 188
37 10 257
37 11 449
37 12 815
37 13 550
37 14 910
37 15 120
37 16 688
37 17 196
37 18 320
37 19 943
37 20 772
37 21 93
37 22 44
37 23 351
37 24 554
37 25 330
37 26 484
37 27 417
37 28 729
37 29 18
37 30 17
37 31 204
37 32 837
37 33 147
37 34 849
37 35 756
37 36 693
37 38 401
37 39 518
37 40 384
37 41 590
37 42 776
37 43 833
37 44 405
37 45 326
37 46 743
37 47 526
37 48 15
37 49 939
38 0 847
38 1 959
38 2 712
38 3 941
38 4 3
38 5 64
38 6 495
38 7 333
38 8 549
38 9 913
38 10 63
38 11 567
38 12 930
38 13 267
38 14 405
38 15 77
38 16 117
38 17 161
38 18 771
38 19 518
38 20 679
38 21 155
38 22 108
38 23 456
38 24 988
38 25 514
38 26 783
38 27 732
38 28 41
38 29 798
38 30 672
38 31 888
38 32 757
38 33 384
38 34 830
38 35 761
38 36 448
38 37 325
38 39 94
38 40 998
38 41 238
38 42 158
38 43 565
38 44 169
38 45 425
38 46 971
38 47 247
38 48 543
38 49 132
39 0 18
39 1 61
39 2 812
39 3 174
39 4 170
39 5 268
39 6 162
39 7 684
39 8 51
39 9 894
39 10 726
39 11 849
39 12 566
39 13 614
39 14 607
39 15 951
39 16 445
39 17 368
39 18 400
39 19 770
39 20 463
39 21 398
39 22 9
39 23 621
39 24 964
39 25 179
39 26 47
39 27 935
39 28 426
39 29 590
39 30 67
39 31 445
39 32 652
39 33 879
39 34 620
39 35 822
39 36 148
39 37 782
39 38 507
39 40 199
39 41 677
39 42 233
39 43 49
39 44 244
39 45 848
39 46 656
39 47 195
39 48 293
39 49 25
40 0 595
40 1 64
40 2 488
40 3 993
40 4 74
40 5 110
40 6 958
40 7 253
40 8 158
40 9 893
40 10 680
40 11 748
40 12 961
40 13 126
40 14 401
40 15 840
40 16 746
40 17 224
40 18 989
40 19 528
40 20 731
40 21 188
40 22 206
40 23 965
40 24 238
40 25 450
40 26 814
40 27 895
40 28 645
40 29 108
40 30 920
40 31 240
40 32 173
40 33 409
40 34 234
40 35 247
40 36 519
40 37 192
40 38 500
40 39 677
40 41 86
40 42 180
40 43 426
40 44 47
40 45 306
40 46 827
40 47 887
40 48 52
40 49 51
41 0 877
41 1 581
41 2 783
41 3 65
41 4 787
41 5 749
41 6 304
41 7 237
41 8 564
41 9 199
41 10 883
41 11 673
41 12 119
41 13 124
41 14 846
41 15 528
41 16 358
41 17 94
41 18 48
41 19 551
41 20 594
41 21 726
41 22 637
41 23 775
41 24 152
41 25 684
41 26 82
41 27 980
41 28 572
41 29 135
41 30 32
41 31 449
41 32 717
41 33 815
41 34 515
41 35 504
41 36 565
41 37 819
41 38 742
41 39 130
41 40 18
41 42 626
41 43 803
41 44 138
41 45 750
41 46 650
41 47 667
41 48 109
41 49 744
42 0 716
42 1 660
42 2 338
42 3 442
42 4 298
42 5 114
42 6 594
42 7 983
42 8 197
42 9 575
42 10 556
42 11 332
42 12 607
42 13 6
42 14 49
42 15 423
42 16 521
42 17 554
42 18 989
42 19 341
42 20 297
42 21 119
42 22 360
42 23 923
42 24 922
42 25 499
42 26 674
42 27 572
42 28 166
42 29 783
42 30 316
42 31 882
42 32 444
42 33 655
42 34 325
42 35 743
42 36 770
42 37 920
42 38 726
42 39 967
42 40 495
42 41 282
42 43 300
42 44 102
42 45 288
42 46 350
42 47 526
42 48 810
42 49 905
43 0 515
43 1 152
43 2 202
43 3 634
43 4 513
43 5 126
43 6 557
43 7 12
43 8 800
43 9 129
43 10 179
43 11 584
43 12 446
43 13 62
43 14 28
43 15 102
43 16 387
43 17 771
43 18 872
43 19 307
43 20 498
43 21 840
43 22 802
43 23 780
43 24 140
43 25 905
43 26 69
43 27 490
43 28 431
43 29 880
43 30 395
43 31 946
43 32 33
43 33 598
43 34 580
43 35 546
43 36 725
43 37 137
43 38 558
43 39 526
43 40 267
43 41 737
43 42 110
43 44 714
43 45 799
43 46 138
43 47 816
43 48 186
43 49 910
44 0 689
44 1 494
44 2 408
44 3 529
44 4 296
44 5 189
44 6 670
44 7 202
44 8 259
44 9 161
44 10 633
44 11 140
44 12 557
44 13 580
44 14 173
44 15 156
44 16 161
44 17 719
44 18 881
44 19 299
44 20 277
44 21 407
44 22 566
44 23 15
44 24 517
44 25 280
44 26 815
44 27 656
44 28 97
44 29 2
44 30 566
44 31 787
44 32 496
44 33 975
44 34 316
44 35 793
44 36 164
44 37 987
44 38 995
44 39 423
44 40 149
44 41 629
44 42 564
44 43 706
44 45 209
44 46 737
44 47 862
44 48 370
44 49 456
45 0 744
45 1 669
45 2 734
45 3 152
45 4 236
45 5 750
45 6 669
45 7 517
45 8 565
45 9 326
45 10 614
45 11 567
45 12 893
45 13 401
45 14 63
45 15 868
45 16 718
45 17 857
45 18 33
45 19 706
45 20 852
45 21 457
45 22 855
45 23 482
45 24 21
45 25 561
45 26 692
45 27 758
45 28 424
45 29 62
45 30 215
45 31 169
45 32 732
45 33 949
45 34 321
45 35 969
45 36 699
45 37 991
45 38 486
45 39 264
45 40 317
45 41 101
45 42 832
45 43 210
45 44 503
45 46 895
45 47 79
45 48 222
45 49 752
46 0 112
46 1 928
46 2 605
46 3 569
46 4 784
46 5 88
46 6 590
46 7 345
46 8 780
46 9 348
46 10 770
46 11 843
46 12 563
46 13 939
46 14 576
46 15 513
46 16 260
46 17 545
46 18 213
46 19 252
46 20 32
46 21 477
46 22 569
46 23 133
46 24 309
46 25 780
46 26 636
46 27 205
46 28 859
46 29 859
46 30 958
46 31 972
46 32 787
46 33 564
46 34 541
46 35 571
46 36 652
46 37 131
46 38 917
46 39 433
46 40 480
46 41 688
46 42 276
46 43 44
46 44 628
46 45 852
46 47 558
46 48 889
46 49 397
47 0 771
47 1 141
47 2 429
47 3 249
47 4 710
47 5 563
47 6 559
47 7 491
47 8 200
47 9 765
47 10 350
47 11 59
47 12 723
47 13 322
47 14 847
47 15 288
47 16 864
47 17 418
47 18 941
47 19 996
47 20 336
47 21 374
47 22 477
47 23 24
47 24 650
47 25 522
47 26 653
47 27 503
47 28 80
47 29 542
47 30 900
47 31 851
47 32 683
47 33 330
47 34 101
47 35 394
47 36 893
47 37 660
47 38 885
47 39 94
47 40 425
47 41 236
47 42 153
47 43 149
47 44 559
47 45 0
47 46 437
47 48 423
47 49 419
48 0 378
48 1 420
48 2 755
48 3 753
48 4 897
48 5 780
48 6 404
48 7 419
48 8 433
48 9 907
48 10 500
48 11 975
48 12 808
48 13 351
48 14 659
48 15 138
48 16 452
48 17 53
48 18 32
48 19 113
48 20 939
48 21 126
48 22 538
48 23 175
48 24 280
48 25 687
48 26 734
48 27 280
48 28 125
48 29 158
48 30 699
48 31 504
48 32 578
48 33 455
48 34 257
48 35 476
48 36 236
48 37 661
48 38 896
48 39 669
48 40 569
48 41 396
48 42 645
48 43 377
48 44 747
48 45 305
48 46 516
48 47 200
48 49 358
49 0 548
49 1 314
49 2 297
49 3 675
49 4 852
49 5 473
49 6 955
49 7 540
49 8 208
49 9 236
49 10 665
49 11 366
49 12 936
49 13 170
49 14 945
49 15 391
49 16 427
49 17 421
49 18 627
49 19 89
49 20 318
49 21 297
49 22 659
49 23 714
49 24 943
49 25 36
49 26 462
49 27 248
49 28 552
49 29 662
49 30 607
49 31 101
49 32 976
49 33 904
49 34 777
49 35 829
49 36 378
49 37 733
49 38 369
49 39 586
49 40 969
49 41 35
49 42 953
49 43 906
49 44 205
49 45 898
49 46 297
49 47 633
49 48 320
